lps/t__ID000M003J005_ZintFalse_minla_fav.lp
\ This file has been generated by DOcplex
\ ENCODING=ISO-8859-1
\Problem name: minla_fav

Minimize
 obj: cmax
Subject To
 c1: x_1_0 - x_0_0 >= 1
 c2: x_2_0 - x_1_0 >= 3
 c3: x_0_1 - x_1_1 >= 8
 c4: x_2_1 - x_0_1 >= 5
 c5: x_2_2 - x_0_2 >= 5
 c6: x_1_2 - x_2_2 >= 4
 c7: x_0_3 - x_2_3 >= 4
 c8: x_1_3 - x_0_3 >= 10
 c9: x_2_4 - x_1_4 >= 8
 c10: x_0_4 - x_2_4 >= 3
 c11: x_0_1 - x_0_0 - 84 z_0_0_1 - 5 z_0_0_2 - 10 z_0_0_3 - 7 z_0_0_4
      + 5 s_0_2_0_1 + 10 s_0_3_0_1 + 7 s_0_4_0_1 >= -83
 c12: x_0_0 - x_0_1 + 84 z_0_0_1 - 5 z_0_1_2 - 10 z_0_1_3 - 7 z_0_1_4
      + 5 s_0_2_0_1 + 10 s_0_3_0_1 + 7 s_0_4_0_1 >= 5
 c13: x_0_2 - x_0_0 - 84 z_0_0_2 - 10 z_0_0_3 - 7 z_0_0_4 - 5 s_0_1_0_2
      + 10 s_0_3_0_2 + 7 s_0_4_0_2 >= -83
 c14: x_0_0 - x_0_2 + 5 z_0_0_1 + 84 z_0_0_2 + 5 z_0_1_2 - 10 z_0_2_3
      - 7 z_0_2_4 - 5 s_0_1_0_2 + 10 s_0_3_0_2 + 7 s_0_4_0_2 >= 10
 c15: x_0_3 - x_0_0 - 84 z_0_0_3 - 7 z_0_0_4 - 5 s_0_1_0_3 - 5 s_0_2_0_3
      + 7 s_0_4_0_3 >= -83
 c16: x_0_0 - x_0_3 + 5 z_0_0_1 + 5 z_0_0_2 + 84 z_0_0_3 + 5 z_0_1_3 + 5 z_0_2_3
      - 7 z_0_3_4 - 5 s_0_1_0_3 - 5 s_0_2_0_3 + 7 s_0_4_0_3 >= 20
 c17: x_0_4 - x_0_0 - 84 z_0_0_4 - 5 s_0_1_0_4 - 5 s_0_2_0_4 - 10 s_0_3_0_4 >= 
      -83
 c18: x_0_0 - x_0_4 + 5 z_0_0_1 + 5 z_0_0_2 + 10 z_0_0_3 + 84 z_0_0_4
      + 5 z_0_1_4 + 5 z_0_2_4 + 10 z_0_3_4 - 5 s_0_1_0_4 - 5 s_0_2_0_4
      - 10 s_0_3_0_4 >= 27
 c19: x_0_2 - x_0_1 - z_0_0_2 - 84 z_0_1_2 - 10 z_0_1_3 - 7 z_0_1_4 + s_0_0_1_2
      + 10 s_0_3_1_2 + 7 s_0_4_1_2 >= -79
 c20: x_0_1 - x_0_2 - z_0_0_1 + 84 z_0_1_2 - 10 z_0_2_3 - 7 z_0_2_4 + s_0_0_1_2
      + 10 s_0_3_1_2 + 7 s_0_4_1_2 >= 5
 c21: x_0_3 - x_0_1 - z_0_0_3 - 84 z_0_1_3 - 7 z_0_1_4 + s_0_0_1_3 - 5 s_0_2_1_3
      + 7 s_0_4_1_3 >= -79
 c22: x_0_1 - x_0_3 - z_0_0_1 + 5 z_0_1_2 + 84 z_0_1_3 + 5 z_0_2_3 - 7 z_0_3_4
      + s_0_0_1_3 - 5 s_0_2_1_3 + 7 s_0_4_1_3 >= 15
 c23: x_0_4 - x_0_1 - z_0_0_4 - 84 z_0_1_4 + s_0_0_1_4 - 5 s_0_2_1_4
      - 10 s_0_3_1_4 >= -79
 c24: x_0_1 - x_0_4 - z_0_0_1 + 5 z_0_1_2 + 10 z_0_1_3 + 84 z_0_1_4 + 5 z_0_2_4
      + 10 z_0_3_4 + s_0_0_1_4 - 5 s_0_2_1_4 - 10 s_0_3_1_4 >= 22
 c25: x_0_3 - x_0_2 - z_0_0_3 - 5 z_0_1_3 - 84 z_0_2_3 - 7 z_0_2_4 + s_0_0_2_3
      + 5 s_0_1_2_3 + 7 s_0_4_2_3 >= -79
 c26: x_0_2 - x_0_3 - z_0_0_2 - 5 z_0_1_2 + 84 z_0_2_3 - 7 z_0_3_4 + s_0_0_2_3
      + 5 s_0_1_2_3 + 7 s_0_4_2_3 >= 10
 c27: x_0_4 - x_0_2 - z_0_0_4 - 5 z_0_1_4 - 84 z_0_2_4 + s_0_0_2_4 + 5 s_0_1_2_4
      - 10 s_0_3_2_4 >= -79
 c28: x_0_2 - x_0_4 - z_0_0_2 - 5 z_0_1_2 + 10 z_0_2_3 + 84 z_0_2_4 + 10 z_0_3_4
      + s_0_0_2_4 + 5 s_0_1_2_4 - 10 s_0_3_2_4 >= 17
 c29: x_0_4 - x_0_3 - z_0_0_4 - 5 z_0_1_4 - 5 z_0_2_4 - 84 z_0_3_4 + s_0_0_3_4
      + 5 s_0_1_3_4 + 5 s_0_2_3_4 >= -74
 c30: x_0_3 - x_0_4 - z_0_0_3 - 5 z_0_1_3 - 5 z_0_2_3 + 84 z_0_3_4 + s_0_0_3_4
      + 5 s_0_1_3_4 + 5 s_0_2_3_4 >= 7
 c31: x_1_1 - x_1_0 - 84 z_1_0_1 - 8 z_1_0_2 - 6 z_1_0_3 - 8 z_1_0_4
      + 8 s_1_2_0_1 + 6 s_1_3_0_1 + 8 s_1_4_0_1 >= -81
 c32: x_1_0 - x_1_1 + 84 z_1_0_1 - 8 z_1_1_2 - 6 z_1_1_3 - 8 z_1_1_4
      + 8 s_1_2_0_1 + 6 s_1_3_0_1 + 8 s_1_4_0_1 >= 8
 c33: x_1_2 - x_1_0 - 84 z_1_0_2 - 6 z_1_0_3 - 8 z_1_0_4 - 8 s_1_1_0_2
      + 6 s_1_3_0_2 + 8 s_1_4_0_2 >= -81
 c34: x_1_0 - x_1_2 + 8 z_1_0_1 + 84 z_1_0_2 + 8 z_1_1_2 - 6 z_1_2_3 - 8 z_1_2_4
      - 8 s_1_1_0_2 + 6 s_1_3_0_2 + 8 s_1_4_0_2 >= 16
 c35: x_1_3 - x_1_0 - 84 z_1_0_3 - 8 z_1_0_4 - 8 s_1_1_0_3 - 8 s_1_2_0_3
      + 8 s_1_4_0_3 >= -81
 c36: x_1_0 - x_1_3 + 8 z_1_0_1 + 8 z_1_0_2 + 84 z_1_0_3 + 8 z_1_1_3 + 8 z_1_2_3
      - 8 z_1_3_4 - 8 s_1_1_0_3 - 8 s_1_2_0_3 + 8 s_1_4_0_3 >= 22
 c37: x_1_4 - x_1_0 - 84 z_1_0_4 - 8 s_1_1_0_4 - 8 s_1_2_0_4 - 6 s_1_3_0_4 >= 
      -81
 c38: x_1_0 - x_1_4 + 8 z_1_0_1 + 8 z_1_0_2 + 6 z_1_0_3 + 84 z_1_0_4 + 8 z_1_1_4
      + 8 z_1_2_4 + 6 z_1_3_4 - 8 s_1_1_0_4 - 8 s_1_2_0_4 - 6 s_1_3_0_4 >= 30
 c39: x_1_2 - x_1_1 - 3 z_1_0_2 - 84 z_1_1_2 - 6 z_1_1_3 - 8 z_1_1_4
      + 3 s_1_0_1_2 + 6 s_1_3_1_2 + 8 s_1_4_1_2 >= -76
 c40: x_1_1 - x_1_2 - 3 z_1_0_1 + 84 z_1_1_2 - 6 z_1_2_3 - 8 z_1_2_4
      + 3 s_1_0_1_2 + 6 s_1_3_1_2 + 8 s_1_4_1_2 >= 8
 c41: x_1_3 - x_1_1 - 3 z_1_0_3 - 84 z_1_1_3 - 8 z_1_1_4 + 3 s_1_0_1_3
      - 8 s_1_2_1_3 + 8 s_1_4_1_3 >= -76
 c42: x_1_1 - x_1_3 - 3 z_1_0_1 + 8 z_1_1_2 + 84 z_1_1_3 + 8 z_1_2_3 - 8 z_1_3_4
      + 3 s_1_0_1_3 - 8 s_1_2_1_3 + 8 s_1_4_1_3 >= 14
 c43: x_1_4 - x_1_1 - 3 z_1_0_4 - 84 z_1_1_4 + 3 s_1_0_1_4 - 8 s_1_2_1_4
      - 6 s_1_3_1_4 >= -76
 c44: x_1_1 - x_1_4 - 3 z_1_0_1 + 8 z_1_1_2 + 6 z_1_1_3 + 84 z_1_1_4 + 8 z_1_2_4
      + 6 z_1_3_4 + 3 s_1_0_1_4 - 8 s_1_2_1_4 - 6 s_1_3_1_4 >= 22
 c45: x_1_3 - x_1_2 - 3 z_1_0_3 - 8 z_1_1_3 - 84 z_1_2_3 - 8 z_1_2_4
      + 3 s_1_0_2_3 + 8 s_1_1_2_3 + 8 s_1_4_2_3 >= -76
 c46: x_1_2 - x_1_3 - 3 z_1_0_2 - 8 z_1_1_2 + 84 z_1_2_3 - 8 z_1_3_4
      + 3 s_1_0_2_3 + 8 s_1_1_2_3 + 8 s_1_4_2_3 >= 6
 c47: x_1_4 - x_1_2 - 3 z_1_0_4 - 8 z_1_1_4 - 84 z_1_2_4 + 3 s_1_0_2_4
      + 8 s_1_1_2_4 - 6 s_1_3_2_4 >= -76
 c48: x_1_2 - x_1_4 - 3 z_1_0_2 - 8 z_1_1_2 + 6 z_1_2_3 + 84 z_1_2_4 + 6 z_1_3_4
      + 3 s_1_0_2_4 + 8 s_1_1_2_4 - 6 s_1_3_2_4 >= 14
 c49: x_1_4 - x_1_3 - 3 z_1_0_4 - 8 z_1_1_4 - 8 z_1_2_4 - 84 z_1_3_4
      + 3 s_1_0_3_4 + 8 s_1_1_3_4 + 8 s_1_2_3_4 >= -78
 c50: x_1_3 - x_1_4 - 3 z_1_0_3 - 8 z_1_1_3 - 8 z_1_2_3 + 84 z_1_3_4
      + 3 s_1_0_3_4 + 8 s_1_1_3_4 + 8 s_1_2_3_4 >= 8
 c51: x_2_1 - x_2_0 - 84 z_2_0_1 - 4 z_2_0_2 - 4 z_2_0_3 - 3 z_2_0_4
      + 4 s_2_2_0_1 + 4 s_2_3_0_1 + 3 s_2_4_0_1 >= -82
 c52: x_2_0 - x_2_1 + 84 z_2_0_1 - 4 z_2_1_2 - 4 z_2_1_3 - 3 z_2_1_4
      + 4 s_2_2_0_1 + 4 s_2_3_0_1 + 3 s_2_4_0_1 >= 10
 c53: x_2_2 - x_2_0 - 84 z_2_0_2 - 4 z_2_0_3 - 3 z_2_0_4 - 10 s_2_1_0_2
      + 4 s_2_3_0_2 + 3 s_2_4_0_2 >= -82
 c54: x_2_0 - x_2_2 + 10 z_2_0_1 + 84 z_2_0_2 + 10 z_2_1_2 - 4 z_2_2_3
      - 3 z_2_2_4 - 10 s_2_1_0_2 + 4 s_2_3_0_2 + 3 s_2_4_0_2 >= 14
 c55: x_2_3 - x_2_0 - 84 z_2_0_3 - 3 z_2_0_4 - 10 s_2_1_0_3 - 4 s_2_2_0_3
      + 3 s_2_4_0_3 >= -82
 c56: x_2_0 - x_2_3 + 10 z_2_0_1 + 4 z_2_0_2 + 84 z_2_0_3 + 10 z_2_1_3
      + 4 z_2_2_3 - 3 z_2_3_4 - 10 s_2_1_0_3 - 4 s_2_2_0_3 + 3 s_2_4_0_3 >= 18
 c57: x_2_4 - x_2_0 - 84 z_2_0_4 - 10 s_2_1_0_4 - 4 s_2_2_0_4 - 4 s_2_3_0_4 >= 
      -82
 c58: x_2_0 - x_2_4 + 10 z_2_0_1 + 4 z_2_0_2 + 4 z_2_0_3 + 84 z_2_0_4
      + 10 z_2_1_4 + 4 z_2_2_4 + 4 z_2_3_4 - 10 s_2_1_0_4 - 4 s_2_2_0_4
      - 4 s_2_3_0_4 >= 21
 c59: x_2_2 - x_2_1 - 2 z_2_0_2 - 84 z_2_1_2 - 4 z_2_1_3 - 3 z_2_1_4
      + 2 s_2_0_1_2 + 4 s_2_3_1_2 + 3 s_2_4_1_2 >= -74
 c60: x_2_1 - x_2_2 - 2 z_2_0_1 + 84 z_2_1_2 - 4 z_2_2_3 - 3 z_2_2_4
      + 2 s_2_0_1_2 + 4 s_2_3_1_2 + 3 s_2_4_1_2 >= 4
 c61: x_2_3 - x_2_1 - 2 z_2_0_3 - 84 z_2_1_3 - 3 z_2_1_4 + 2 s_2_0_1_3
      - 4 s_2_2_1_3 + 3 s_2_4_1_3 >= -74
 c62: x_2_1 - x_2_3 - 2 z_2_0_1 + 4 z_2_1_2 + 84 z_2_1_3 + 4 z_2_2_3 - 3 z_2_3_4
      + 2 s_2_0_1_3 - 4 s_2_2_1_3 + 3 s_2_4_1_3 >= 8
 c63: x_2_4 - x_2_1 - 2 z_2_0_4 - 84 z_2_1_4 + 2 s_2_0_1_4 - 4 s_2_2_1_4
      - 4 s_2_3_1_4 >= -74
 c64: x_2_1 - x_2_4 - 2 z_2_0_1 + 4 z_2_1_2 + 4 z_2_1_3 + 84 z_2_1_4 + 4 z_2_2_4
      + 4 z_2_3_4 + 2 s_2_0_1_4 - 4 s_2_2_1_4 - 4 s_2_3_1_4 >= 11
 c65: x_2_3 - x_2_2 - 2 z_2_0_3 - 10 z_2_1_3 - 84 z_2_2_3 - 3 z_2_2_4
      + 2 s_2_0_2_3 + 10 s_2_1_2_3 + 3 s_2_4_2_3 >= -80
 c66: x_2_2 - x_2_3 - 2 z_2_0_2 - 10 z_2_1_2 + 84 z_2_2_3 - 3 z_2_3_4
      + 2 s_2_0_2_3 + 10 s_2_1_2_3 + 3 s_2_4_2_3 >= 4
 c67: x_2_4 - x_2_2 - 2 z_2_0_4 - 10 z_2_1_4 - 84 z_2_2_4 + 2 s_2_0_2_4
      + 10 s_2_1_2_4 - 4 s_2_3_2_4 >= -80
 c68: x_2_2 - x_2_4 - 2 z_2_0_2 - 10 z_2_1_2 + 4 z_2_2_3 + 84 z_2_2_4
      + 4 z_2_3_4 + 2 s_2_0_2_4 + 10 s_2_1_2_4 - 4 s_2_3_2_4 >= 7
 c69: x_2_4 - x_2_3 - 2 z_2_0_4 - 10 z_2_1_4 - 4 z_2_2_4 - 84 z_2_3_4
      + 2 s_2_0_3_4 + 10 s_2_1_3_4 + 4 s_2_2_3_4 >= -80
 c70: x_2_3 - x_2_4 - 2 z_2_0_3 - 10 z_2_1_3 - 4 z_2_2_3 + 84 z_2_3_4
      + 2 s_2_0_3_4 + 10 s_2_1_3_4 + 4 s_2_2_3_4 >= 3
 c71: s_0_2_0_1 - z_0_0_2 <= 0
 c72: s_0_2_0_1 - z_0_1_2 <= 0
 c73: s_0_2_0_1 - z_0_0_2 - z_0_1_2 >= -1
 c74: s_0_3_0_1 - z_0_0_3 <= 0
 c75: s_0_3_0_1 - z_0_1_3 <= 0
 c76: s_0_3_0_1 - z_0_0_3 - z_0_1_3 >= -1
 c77: s_0_4_0_1 - z_0_0_4 <= 0
 c78: s_0_4_0_1 - z_0_1_4 <= 0
 c79: s_0_4_0_1 - z_0_0_4 - z_0_1_4 >= -1
 c80: s_0_1_0_2 - z_0_0_1 <= 0
 c81: s_0_1_0_2 - z_0_1_2 <= 0
 c82: s_0_1_0_2 - z_0_0_1 - z_0_1_2 >= -1
 c83: s_0_3_0_2 - z_0_0_3 <= 0
 c84: s_0_3_0_2 - z_0_2_3 <= 0
 c85: s_0_3_0_2 - z_0_0_3 - z_0_2_3 >= -1
 c86: s_0_4_0_2 - z_0_0_4 <= 0
 c87: s_0_4_0_2 - z_0_2_4 <= 0
 c88: s_0_4_0_2 - z_0_0_4 - z_0_2_4 >= -1
 c89: s_0_1_0_3 - z_0_0_1 <= 0
 c90: s_0_1_0_3 - z_0_1_3 <= 0
 c91: s_0_1_0_3 - z_0_0_1 - z_0_1_3 >= -1
 c92: s_0_2_0_3 - z_0_0_2 <= 0
 c93: s_0_2_0_3 - z_0_2_3 <= 0
 c94: s_0_2_0_3 - z_0_0_2 - z_0_2_3 >= -1
 c95: s_0_4_0_3 - z_0_0_4 <= 0
 c96: s_0_4_0_3 - z_0_3_4 <= 0
 c97: s_0_4_0_3 - z_0_0_4 - z_0_3_4 >= -1
 c98: s_0_1_0_4 - z_0_0_1 <= 0
 c99: s_0_1_0_4 - z_0_1_4 <= 0
 c100: s_0_1_0_4 - z_0_0_1 - z_0_1_4 >= -1
 c101: s_0_2_0_4 - z_0_0_2 <= 0
 c102: s_0_2_0_4 - z_0_2_4 <= 0
 c103: s_0_2_0_4 - z_0_0_2 - z_0_2_4 >= -1
 c104: s_0_3_0_4 - z_0_0_3 <= 0
 c105: s_0_3_0_4 - z_0_3_4 <= 0
 c106: s_0_3_0_4 - z_0_0_3 - z_0_3_4 >= -1
 c107: s_0_0_1_2 - z_0_0_1 <= 0
 c108: s_0_0_1_2 - z_0_0_2 <= 0
 c109: s_0_0_1_2 - z_0_0_1 - z_0_0_2 >= -1
 c110: s_0_3_1_2 - z_0_1_3 <= 0
 c111: s_0_3_1_2 - z_0_2_3 <= 0
 c112: s_0_3_1_2 - z_0_1_3 - z_0_2_3 >= -1
 c113: s_0_4_1_2 - z_0_1_4 <= 0
 c114: s_0_4_1_2 - z_0_2_4 <= 0
 c115: s_0_4_1_2 - z_0_1_4 - z_0_2_4 >= -1
 c116: s_0_0_1_3 - z_0_0_1 <= 0
 c117: s_0_0_1_3 - z_0_0_3 <= 0
 c118: s_0_0_1_3 - z_0_0_1 - z_0_0_3 >= -1
 c119: s_0_2_1_3 - z_0_1_2 <= 0
 c120: s_0_2_1_3 - z_0_2_3 <= 0
 c121: s_0_2_1_3 - z_0_1_2 - z_0_2_3 >= -1
 c122: s_0_4_1_3 - z_0_1_4 <= 0
 c123: s_0_4_1_3 - z_0_3_4 <= 0
 c124: s_0_4_1_3 - z_0_1_4 - z_0_3_4 >= -1
 c125: s_0_0_1_4 - z_0_0_1 <= 0
 c126: s_0_0_1_4 - z_0_0_4 <= 0
 c127: s_0_0_1_4 - z_0_0_1 - z_0_0_4 >= -1
 c128: s_0_2_1_4 - z_0_1_2 <= 0
 c129: s_0_2_1_4 - z_0_2_4 <= 0
 c130: s_0_2_1_4 - z_0_1_2 - z_0_2_4 >= -1
 c131: s_0_3_1_4 - z_0_1_3 <= 0
 c132: s_0_3_1_4 - z_0_3_4 <= 0
 c133: s_0_3_1_4 - z_0_1_3 - z_0_3_4 >= -1
 c134: s_0_0_2_3 - z_0_0_2 <= 0
 c135: s_0_0_2_3 - z_0_0_3 <= 0
 c136: s_0_0_2_3 - z_0_0_2 - z_0_0_3 >= -1
 c137: s_0_1_2_3 - z_0_1_2 <= 0
 c138: s_0_1_2_3 - z_0_1_3 <= 0
 c139: s_0_1_2_3 - z_0_1_2 - z_0_1_3 >= -1
 c140: s_0_4_2_3 - z_0_2_4 <= 0
 c141: s_0_4_2_3 - z_0_3_4 <= 0
 c142: s_0_4_2_3 - z_0_2_4 - z_0_3_4 >= -1
 c143: s_0_0_2_4 - z_0_0_2 <= 0
 c144: s_0_0_2_4 - z_0_0_4 <= 0
 c145: s_0_0_2_4 - z_0_0_2 - z_0_0_4 >= -1
 c146: s_0_1_2_4 - z_0_1_2 <= 0
 c147: s_0_1_2_4 - z_0_1_4 <= 0
 c148: s_0_1_2_4 - z_0_1_2 - z_0_1_4 >= -1
 c149: s_0_3_2_4 - z_0_2_3 <= 0
 c150: s_0_3_2_4 - z_0_3_4 <= 0
 c151: s_0_3_2_4 - z_0_2_3 - z_0_3_4 >= -1
 c152: s_0_0_3_4 - z_0_0_3 <= 0
 c153: s_0_0_3_4 - z_0_0_4 <= 0
 c154: s_0_0_3_4 - z_0_0_3 - z_0_0_4 >= -1
 c155: s_0_1_3_4 - z_0_1_3 <= 0
 c156: s_0_1_3_4 - z_0_1_4 <= 0
 c157: s_0_1_3_4 - z_0_1_3 - z_0_1_4 >= -1
 c158: s_0_2_3_4 - z_0_2_3 <= 0
 c159: s_0_2_3_4 - z_0_2_4 <= 0
 c160: s_0_2_3_4 - z_0_2_3 - z_0_2_4 >= -1
 c161: s_1_2_0_1 - z_1_0_2 <= 0
 c162: s_1_2_0_1 - z_1_1_2 <= 0
 c163: s_1_2_0_1 - z_1_0_2 - z_1_1_2 >= -1
 c164: s_1_3_0_1 - z_1_0_3 <= 0
 c165: s_1_3_0_1 - z_1_1_3 <= 0
 c166: s_1_3_0_1 - z_1_0_3 - z_1_1_3 >= -1
 c167: s_1_4_0_1 - z_1_0_4 <= 0
 c168: s_1_4_0_1 - z_1_1_4 <= 0
 c169: s_1_4_0_1 - z_1_0_4 - z_1_1_4 >= -1
 c170: s_1_1_0_2 - z_1_0_1 <= 0
 c171: s_1_1_0_2 - z_1_1_2 <= 0
 c172: s_1_1_0_2 - z_1_0_1 - z_1_1_2 >= -1
 c173: s_1_3_0_2 - z_1_0_3 <= 0
 c174: s_1_3_0_2 - z_1_2_3 <= 0
 c175: s_1_3_0_2 - z_1_0_3 - z_1_2_3 >= -1
 c176: s_1_4_0_2 - z_1_0_4 <= 0
 c177: s_1_4_0_2 - z_1_2_4 <= 0
 c178: s_1_4_0_2 - z_1_0_4 - z_1_2_4 >= -1
 c179: s_1_1_0_3 - z_1_0_1 <= 0
 c180: s_1_1_0_3 - z_1_1_3 <= 0
 c181: s_1_1_0_3 - z_1_0_1 - z_1_1_3 >= -1
 c182: s_1_2_0_3 - z_1_0_2 <= 0
 c183: s_1_2_0_3 - z_1_2_3 <= 0
 c184: s_1_2_0_3 - z_1_0_2 - z_1_2_3 >= -1
 c185: s_1_4_0_3 - z_1_0_4 <= 0
 c186: s_1_4_0_3 - z_1_3_4 <= 0
 c187: s_1_4_0_3 - z_1_0_4 - z_1_3_4 >= -1
 c188: s_1_1_0_4 - z_1_0_1 <= 0
 c189: s_1_1_0_4 - z_1_1_4 <= 0
 c190: s_1_1_0_4 - z_1_0_1 - z_1_1_4 >= -1
 c191: s_1_2_0_4 - z_1_0_2 <= 0
 c192: s_1_2_0_4 - z_1_2_4 <= 0
 c193: s_1_2_0_4 - z_1_0_2 - z_1_2_4 >= -1
 c194: s_1_3_0_4 - z_1_0_3 <= 0
 c195: s_1_3_0_4 - z_1_3_4 <= 0
 c196: s_1_3_0_4 - z_1_0_3 - z_1_3_4 >= -1
 c197: s_1_0_1_2 - z_1_0_1 <= 0
 c198: s_1_0_1_2 - z_1_0_2 <= 0
 c199: s_1_0_1_2 - z_1_0_1 - z_1_0_2 >= -1
 c200: s_1_3_1_2 - z_1_1_3 <= 0
 c201: s_1_3_1_2 - z_1_2_3 <= 0
 c202: s_1_3_1_2 - z_1_1_3 - z_1_2_3 >= -1
 c203: s_1_4_1_2 - z_1_1_4 <= 0
 c204: s_1_4_1_2 - z_1_2_4 <= 0
 c205: s_1_4_1_2 - z_1_1_4 - z_1_2_4 >= -1
 c206: s_1_0_1_3 - z_1_0_1 <= 0
 c207: s_1_0_1_3 - z_1_0_3 <= 0
 c208: s_1_0_1_3 - z_1_0_1 - z_1_0_3 >= -1
 c209: s_1_2_1_3 - z_1_1_2 <= 0
 c210: s_1_2_1_3 - z_1_2_3 <= 0
 c211: s_1_2_1_3 - z_1_1_2 - z_1_2_3 >= -1
 c212: s_1_4_1_3 - z_1_1_4 <= 0
 c213: s_1_4_1_3 - z_1_3_4 <= 0
 c214: s_1_4_1_3 - z_1_1_4 - z_1_3_4 >= -1
 c215: s_1_0_1_4 - z_1_0_1 <= 0
 c216: s_1_0_1_4 - z_1_0_4 <= 0
 c217: s_1_0_1_4 - z_1_0_1 - z_1_0_4 >= -1
 c218: s_1_2_1_4 - z_1_1_2 <= 0
 c219: s_1_2_1_4 - z_1_2_4 <= 0
 c220: s_1_2_1_4 - z_1_1_2 - z_1_2_4 >= -1
 c221: s_1_3_1_4 - z_1_1_3 <= 0
 c222: s_1_3_1_4 - z_1_3_4 <= 0
 c223: s_1_3_1_4 - z_1_1_3 - z_1_3_4 >= -1
 c224: s_1_0_2_3 - z_1_0_2 <= 0
 c225: s_1_0_2_3 - z_1_0_3 <= 0
 c226: s_1_0_2_3 - z_1_0_2 - z_1_0_3 >= -1
 c227: s_1_1_2_3 - z_1_1_2 <= 0
 c228: s_1_1_2_3 - z_1_1_3 <= 0
 c229: s_1_1_2_3 - z_1_1_2 - z_1_1_3 >= -1
 c230: s_1_4_2_3 - z_1_2_4 <= 0
 c231: s_1_4_2_3 - z_1_3_4 <= 0
 c232: s_1_4_2_3 - z_1_2_4 - z_1_3_4 >= -1
 c233: s_1_0_2_4 - z_1_0_2 <= 0
 c234: s_1_0_2_4 - z_1_0_4 <= 0
 c235: s_1_0_2_4 - z_1_0_2 - z_1_0_4 >= -1
 c236: s_1_1_2_4 - z_1_1_2 <= 0
 c237: s_1_1_2_4 - z_1_1_4 <= 0
 c238: s_1_1_2_4 - z_1_1_2 - z_1_1_4 >= -1
 c239: s_1_3_2_4 - z_1_2_3 <= 0
 c240: s_1_3_2_4 - z_1_3_4 <= 0
 c241: s_1_3_2_4 - z_1_2_3 - z_1_3_4 >= -1
 c242: s_1_0_3_4 - z_1_0_3 <= 0
 c243: s_1_0_3_4 - z_1_0_4 <= 0
 c244: s_1_0_3_4 - z_1_0_3 - z_1_0_4 >= -1
 c245: s_1_1_3_4 - z_1_1_3 <= 0
 c246: s_1_1_3_4 - z_1_1_4 <= 0
 c247: s_1_1_3_4 - z_1_1_3 - z_1_1_4 >= -1
 c248: s_1_2_3_4 - z_1_2_3 <= 0
 c249: s_1_2_3_4 - z_1_2_4 <= 0
 c250: s_1_2_3_4 - z_1_2_3 - z_1_2_4 >= -1
 c251: s_2_2_0_1 - z_2_0_2 <= 0
 c252: s_2_2_0_1 - z_2_1_2 <= 0
 c253: s_2_2_0_1 - z_2_0_2 - z_2_1_2 >= -1
 c254: s_2_3_0_1 - z_2_0_3 <= 0
 c255: s_2_3_0_1 - z_2_1_3 <= 0
 c256: s_2_3_0_1 - z_2_0_3 - z_2_1_3 >= -1
 c257: s_2_4_0_1 - z_2_0_4 <= 0
 c258: s_2_4_0_1 - z_2_1_4 <= 0
 c259: s_2_4_0_1 - z_2_0_4 - z_2_1_4 >= -1
 c260: s_2_1_0_2 - z_2_0_1 <= 0
 c261: s_2_1_0_2 - z_2_1_2 <= 0
 c262: s_2_1_0_2 - z_2_0_1 - z_2_1_2 >= -1
 c263: s_2_3_0_2 - z_2_0_3 <= 0
 c264: s_2_3_0_2 - z_2_2_3 <= 0
 c265: s_2_3_0_2 - z_2_0_3 - z_2_2_3 >= -1
 c266: s_2_4_0_2 - z_2_0_4 <= 0
 c267: s_2_4_0_2 - z_2_2_4 <= 0
 c268: s_2_4_0_2 - z_2_0_4 - z_2_2_4 >= -1
 c269: s_2_1_0_3 - z_2_0_1 <= 0
 c270: s_2_1_0_3 - z_2_1_3 <= 0
 c271: s_2_1_0_3 - z_2_0_1 - z_2_1_3 >= -1
 c272: s_2_2_0_3 - z_2_0_2 <= 0
 c273: s_2_2_0_3 - z_2_2_3 <= 0
 c274: s_2_2_0_3 - z_2_0_2 - z_2_2_3 >= -1
 c275: s_2_4_0_3 - z_2_0_4 <= 0
 c276: s_2_4_0_3 - z_2_3_4 <= 0
 c277: s_2_4_0_3 - z_2_0_4 - z_2_3_4 >= -1
 c278: s_2_1_0_4 - z_2_0_1 <= 0
 c279: s_2_1_0_4 - z_2_1_4 <= 0
 c280: s_2_1_0_4 - z_2_0_1 - z_2_1_4 >= -1
 c281: s_2_2_0_4 - z_2_0_2 <= 0
 c282: s_2_2_0_4 - z_2_2_4 <= 0
 c283: s_2_2_0_4 - z_2_0_2 - z_2_2_4 >= -1
 c284: s_2_3_0_4 - z_2_0_3 <= 0
 c285: s_2_3_0_4 - z_2_3_4 <= 0
 c286: s_2_3_0_4 - z_2_0_3 - z_2_3_4 >= -1
 c287: s_2_0_1_2 - z_2_0_1 <= 0
 c288: s_2_0_1_2 - z_2_0_2 <= 0
 c289: s_2_0_1_2 - z_2_0_1 - z_2_0_2 >= -1
 c290: s_2_3_1_2 - z_2_1_3 <= 0
 c291: s_2_3_1_2 - z_2_2_3 <= 0
 c292: s_2_3_1_2 - z_2_1_3 - z_2_2_3 >= -1
 c293: s_2_4_1_2 - z_2_1_4 <= 0
 c294: s_2_4_1_2 - z_2_2_4 <= 0
 c295: s_2_4_1_2 - z_2_1_4 - z_2_2_4 >= -1
 c296: s_2_0_1_3 - z_2_0_1 <= 0
 c297: s_2_0_1_3 - z_2_0_3 <= 0
 c298: s_2_0_1_3 - z_2_0_1 - z_2_0_3 >= -1
 c299: s_2_2_1_3 - z_2_1_2 <= 0
 c300: s_2_2_1_3 - z_2_2_3 <= 0
 c301: s_2_2_1_3 - z_2_1_2 - z_2_2_3 >= -1
 c302: s_2_4_1_3 - z_2_1_4 <= 0
 c303: s_2_4_1_3 - z_2_3_4 <= 0
 c304: s_2_4_1_3 - z_2_1_4 - z_2_3_4 >= -1
 c305: s_2_0_1_4 - z_2_0_1 <= 0
 c306: s_2_0_1_4 - z_2_0_4 <= 0
 c307: s_2_0_1_4 - z_2_0_1 - z_2_0_4 >= -1
 c308: s_2_2_1_4 - z_2_1_2 <= 0
 c309: s_2_2_1_4 - z_2_2_4 <= 0
 c310: s_2_2_1_4 - z_2_1_2 - z_2_2_4 >= -1
 c311: s_2_3_1_4 - z_2_1_3 <= 0
 c312: s_2_3_1_4 - z_2_3_4 <= 0
 c313: s_2_3_1_4 - z_2_1_3 - z_2_3_4 >= -1
 c314: s_2_0_2_3 - z_2_0_2 <= 0
 c315: s_2_0_2_3 - z_2_0_3 <= 0
 c316: s_2_0_2_3 - z_2_0_2 - z_2_0_3 >= -1
 c317: s_2_1_2_3 - z_2_1_2 <= 0
 c318: s_2_1_2_3 - z_2_1_3 <= 0
 c319: s_2_1_2_3 - z_2_1_2 - z_2_1_3 >= -1
 c320: s_2_4_2_3 - z_2_2_4 <= 0
 c321: s_2_4_2_3 - z_2_3_4 <= 0
 c322: s_2_4_2_3 - z_2_2_4 - z_2_3_4 >= -1
 c323: s_2_0_2_4 - z_2_0_2 <= 0
 c324: s_2_0_2_4 - z_2_0_4 <= 0
 c325: s_2_0_2_4 - z_2_0_2 - z_2_0_4 >= -1
 c326: s_2_1_2_4 - z_2_1_2 <= 0
 c327: s_2_1_2_4 - z_2_1_4 <= 0
 c328: s_2_1_2_4 - z_2_1_2 - z_2_1_4 >= -1
 c329: s_2_3_2_4 - z_2_2_3 <= 0
 c330: s_2_3_2_4 - z_2_3_4 <= 0
 c331: s_2_3_2_4 - z_2_2_3 - z_2_3_4 >= -1
 c332: s_2_0_3_4 - z_2_0_3 <= 0
 c333: s_2_0_3_4 - z_2_0_4 <= 0
 c334: s_2_0_3_4 - z_2_0_3 - z_2_0_4 >= -1
 c335: s_2_1_3_4 - z_2_1_3 <= 0
 c336: s_2_1_3_4 - z_2_1_4 <= 0
 c337: s_2_1_3_4 - z_2_1_3 - z_2_1_4 >= -1
 c338: s_2_2_3_4 - z_2_2_3 <= 0
 c339: s_2_2_3_4 - z_2_2_4 <= 0
 c340: s_2_2_3_4 - z_2_2_3 - z_2_2_4 >= -1
 c341: x_0_0 + 5 z_0_0_1 + 5 z_0_0_2 + 10 z_0_0_3 + 7 z_0_0_4 >= 27
 c342: x_0_1 - z_0_0_1 + 5 z_0_1_2 + 10 z_0_1_3 + 7 z_0_1_4 >= 22
 c343: x_0_2 - z_0_0_2 - 5 z_0_1_2 + 10 z_0_2_3 + 7 z_0_2_4 >= 17
 c344: x_0_3 - z_0_0_3 - 5 z_0_1_3 - 5 z_0_2_3 + 7 z_0_3_4 >= 7
 c345: x_0_4 - z_0_0_4 - 5 z_0_1_4 - 5 z_0_2_4 - 10 z_0_3_4 >= 0
 c346: x_1_0 + 8 z_1_0_1 + 8 z_1_0_2 + 6 z_1_0_3 + 8 z_1_0_4 >= 30
 c347: x_1_1 - 3 z_1_0_1 + 8 z_1_1_2 + 6 z_1_1_3 + 8 z_1_1_4 >= 22
 c348: x_1_2 - 3 z_1_0_2 - 8 z_1_1_2 + 6 z_1_2_3 + 8 z_1_2_4 >= 14
 c349: x_1_3 - 3 z_1_0_3 - 8 z_1_1_3 - 8 z_1_2_3 + 8 z_1_3_4 >= 8
 c350: x_1_4 - 3 z_1_0_4 - 8 z_1_1_4 - 8 z_1_2_4 - 6 z_1_3_4 >= 0
 c351: x_2_0 + 10 z_2_0_1 + 4 z_2_0_2 + 4 z_2_0_3 + 3 z_2_0_4 >= 21
 c352: x_2_1 - 2 z_2_0_1 + 4 z_2_1_2 + 4 z_2_1_3 + 3 z_2_1_4 >= 11
 c353: x_2_2 - 2 z_2_0_2 - 10 z_2_1_2 + 4 z_2_2_3 + 3 z_2_2_4 >= 7
 c354: x_2_3 - 2 z_2_0_3 - 10 z_2_1_3 - 4 z_2_2_3 + 3 z_2_3_4 >= 3
 c355: x_2_4 - 2 z_2_0_4 - 10 z_2_1_4 - 4 z_2_2_4 - 4 z_2_3_4 >= 0
 c356: x_0_1 - z_0_0_1 >= 0
 c357: x_0_0 + 13 z_0_0_1 >= 13
 c358: x_0_2 - z_0_0_2 >= 0
 c359: x_0_0 + 5 z_0_0_2 >= 5
 c360: x_0_2 - 13 z_0_1_2 >= 0
 c361: x_0_1 + 5 z_0_1_2 >= 5
 c362: x_0_3 - z_0_0_3 >= 0
 c363: x_0_0 + 14 z_0_0_3 >= 14
 c364: x_0_3 - 13 z_0_1_3 >= 0
 c365: x_0_1 + 14 z_0_1_3 >= 14
 c366: x_0_3 - 5 z_0_2_3 >= 0
 c367: x_0_2 + 14 z_0_2_3 >= 14
 c368: x_0_4 - z_0_0_4 >= 0
 c369: x_0_0 + 18 z_0_0_4 >= 18
 c370: x_0_4 - 13 z_0_1_4 >= 0
 c371: x_0_1 + 18 z_0_1_4 >= 18
 c372: x_0_4 - 5 z_0_2_4 >= 0
 c373: x_0_2 + 18 z_0_2_4 >= 18
 c374: x_0_4 - 14 z_0_3_4 >= 0
 c375: x_0_3 + 18 z_0_3_4 >= 18
 c376: x_1_1 - 4 z_1_0_1 >= 0
 c377: x_1_0 + 8 z_1_0_1 >= 8
 c378: x_1_2 - 4 z_1_0_2 >= 0
 c379: x_1_0 + 17 z_1_0_2 >= 17
 c380: x_1_2 - 8 z_1_1_2 >= 0
 c381: x_1_1 + 17 z_1_1_2 >= 17
 c382: x_1_3 - 4 z_1_0_3 >= 0
 c383: x_1_0 + 20 z_1_0_3 >= 20
 c384: x_1_3 - 8 z_1_1_3 >= 0
 c385: x_1_1 + 20 z_1_1_3 >= 20
 c386: x_1_3 - 17 z_1_2_3 >= 0
 c387: x_1_2 + 20 z_1_2_3 >= 20
 c388: x_1_4 - 4 z_1_0_4 >= 0
 c389: x_1_0 + 8 z_1_0_4 >= 8
 c390: x_1_4 - 8 z_1_1_4 >= 0
 c391: x_1_1 + 8 z_1_1_4 >= 8
 c392: x_1_4 - 17 z_1_2_4 >= 0
 c393: x_1_2 + 8 z_1_2_4 >= 8
 c394: x_1_4 - 20 z_1_3_4 >= 0
 c395: x_1_3 + 8 z_1_3_4 >= 8
 c396: x_2_1 - 6 z_2_0_1 >= 0
 c397: x_2_0 + 23 z_2_0_1 >= 23
 c398: x_2_2 - 6 z_2_0_2 >= 0
 c399: x_2_0 + 9 z_2_0_2 >= 9
 c400: x_2_2 - 23 z_2_1_2 >= 0
 c401: x_2_1 + 9 z_2_1_2 >= 9
 c402: x_2_3 - 6 z_2_0_3 >= 0
 c403: x_2_0 + 4 z_2_0_3 >= 4
 c404: x_2_3 - 23 z_2_1_3 >= 0
 c405: x_2_1 + 4 z_2_1_3 >= 4
 c406: x_2_3 - 9 z_2_2_3 >= 0
 c407: x_2_2 + 4 z_2_2_3 >= 4
 c408: x_2_4 - 6 z_2_0_4 >= 0
 c409: x_2_0 + 11 z_2_0_4 >= 11
 c410: x_2_4 - 23 z_2_1_4 >= 0
 c411: x_2_1 + 11 z_2_1_4 >= 11
 c412: x_2_4 - 9 z_2_2_4 >= 0
 c413: x_2_2 + 11 z_2_2_4 >= 11
 c414: x_2_4 - 4 z_2_3_4 >= 0
 c415: x_2_3 + 11 z_2_3_4 >= 11
 c416: cmax - x_0_0 - 15 z_0_0_1 >= 1
 c417: cmax - x_0_1 + 6 z_0_0_1 >= 11
 c418: cmax - x_0_0 - 17 z_0_0_2 >= 1
 c419: cmax - x_0_2 + 6 z_0_0_2 >= 11
 c420: cmax - x_0_0 - 16 z_0_0_3 >= 1
 c421: cmax - x_0_3 + 6 z_0_0_3 >= 16
 c422: cmax - x_0_0 - 7 z_0_0_4 >= 1
 c423: cmax - x_0_4 + 6 z_0_0_4 >= 13
 c424: cmax - x_0_1 - 17 z_0_1_2 >= 5
 c425: cmax - x_0_2 + 15 z_0_1_2 >= 20
 c426: cmax - x_0_1 - 16 z_0_1_3 >= 5
 c427: cmax - x_0_3 + 15 z_0_1_3 >= 25
 c428: cmax - x_0_1 - 7 z_0_1_4 >= 5
 c429: cmax - x_0_4 + 15 z_0_1_4 >= 22
 c430: cmax - x_0_2 - 16 z_0_2_3 >= 5
 c431: cmax - x_0_3 + 17 z_0_2_3 >= 27
 c432: cmax - x_0_2 - 7 z_0_2_4 >= 5
 c433: cmax - x_0_4 + 17 z_0_2_4 >= 24
 c434: cmax - x_0_3 - 7 z_0_3_4 >= 10
 c435: cmax - x_0_4 + 16 z_0_3_4 >= 23
 c436: cmax - x_1_0 - 23 z_1_0_1 >= 3
 c437: cmax - x_1_1 + 5 z_1_0_1 >= 13
 c438: cmax - x_1_0 - 8 z_1_0_2 >= 3
 c439: cmax - x_1_2 + 5 z_1_0_2 >= 13
 c440: cmax - x_1_0 - 6 z_1_0_3 >= 3
 c441: cmax - x_1_3 + 5 z_1_0_3 >= 11
 c442: cmax - x_1_0 - 18 z_1_0_4 >= 3
 c443: cmax - x_1_4 + 5 z_1_0_4 >= 13
 c444: cmax - x_1_1 - 8 z_1_1_2 >= 8
 c445: cmax - x_1_2 + 23 z_1_1_2 >= 31
 c446: cmax - x_1_1 - 6 z_1_1_3 >= 8
 c447: cmax - x_1_3 + 23 z_1_1_3 >= 29
 c448: cmax - x_1_1 - 18 z_1_1_4 >= 8
 c449: cmax - x_1_4 + 23 z_1_1_4 >= 31
 c450: cmax - x_1_2 - 6 z_1_2_3 >= 8
 c451: cmax - x_1_3 + 8 z_1_2_3 >= 14
 c452: cmax - x_1_2 - 18 z_1_2_4 >= 8
 c453: cmax - x_1_4 + 8 z_1_2_4 >= 16
 c454: cmax - x_1_3 - 18 z_1_3_4 >= 6
 c455: cmax - x_1_4 + 6 z_1_3_4 >= 14
 c456: cmax - x_2_0 - 10 z_2_0_1 >= 2
 c457: cmax - x_2_1 + 2 z_2_0_1 >= 12
 c458: cmax - x_2_0 - 12 z_2_0_2 >= 2
 c459: cmax - x_2_2 + 2 z_2_0_2 >= 6
 c460: cmax - x_2_0 - 20 z_2_0_3 >= 2
 c461: cmax - x_2_3 + 2 z_2_0_3 >= 6
 c462: cmax - x_2_0 - 10 z_2_0_4 >= 2
 c463: cmax - x_2_4 + 2 z_2_0_4 >= 5
 c464: cmax - x_2_1 - 12 z_2_1_2 >= 10
 c465: cmax - x_2_2 + 10 z_2_1_2 >= 14
 c466: cmax - x_2_1 - 20 z_2_1_3 >= 10
 c467: cmax - x_2_3 + 10 z_2_1_3 >= 14
 c468: cmax - x_2_1 - 10 z_2_1_4 >= 10
 c469: cmax - x_2_4 + 10 z_2_1_4 >= 13
 c470: cmax - x_2_2 - 20 z_2_2_3 >= 4
 c471: cmax - x_2_3 + 12 z_2_2_3 >= 16
 c472: cmax - x_2_2 - 10 z_2_2_4 >= 4
 c473: cmax - x_2_4 + 12 z_2_2_4 >= 15
 c474: cmax - x_2_3 - 10 z_2_3_4 >= 4
 c475: cmax - x_2_4 + 20 z_2_3_4 >= 23
 c476: cmax - x_0_0 >= 6
 c477: cmax - x_0_1 >= 15
 c478: cmax - x_0_2 >= 17
 c479: cmax - x_0_3 >= 16
 c480: cmax - x_0_4 >= 7
 c481: cmax - x_1_0 >= 5
 c482: cmax - x_1_1 >= 23
 c483: cmax - x_1_2 >= 8
 c484: cmax - x_1_3 >= 6
 c485: cmax - x_1_4 >= 18
 c486: cmax - x_2_0 >= 2
 c487: cmax - x_2_1 >= 10
 c488: cmax - x_2_2 >= 12
 c489: cmax - x_2_3 >= 20
 c490: cmax - x_2_4 >= 10

Bounds
       z_0_0_1 <= 1
       z_0_0_2 <= 1
       z_0_0_3 <= 1
       z_0_0_4 <= 1
       z_0_1_2 <= 1
       z_0_1_3 <= 1
       z_0_1_4 <= 1
       z_0_2_3 <= 1
       z_0_2_4 <= 1
       z_0_3_4 <= 1
       z_1_0_1 <= 1
       z_1_0_2 <= 1
       z_1_0_3 <= 1
       z_1_0_4 <= 1
       z_1_1_2 <= 1
       z_1_1_3 <= 1
       z_1_1_4 <= 1
       z_1_2_3 <= 1
       z_1_2_4 <= 1
       z_1_3_4 <= 1
       z_2_0_1 <= 1
       z_2_0_2 <= 1
       z_2_0_3 <= 1
       z_2_0_4 <= 1
       z_2_1_2 <= 1
       z_2_1_3 <= 1
       z_2_1_4 <= 1
       z_2_2_3 <= 1
       z_2_2_4 <= 1
       z_2_3_4 <= 1
 23 <= cmax
       s_0_2_0_1 <= 1
       s_0_3_0_1 <= 1
       s_0_4_0_1 <= 1
       s_0_1_0_2 <= 1
       s_0_3_0_2 <= 1
       s_0_4_0_2 <= 1
       s_0_1_0_3 <= 1
       s_0_2_0_3 <= 1
       s_0_4_0_3 <= 1
       s_0_1_0_4 <= 1
       s_0_2_0_4 <= 1
       s_0_3_0_4 <= 1
       s_0_0_1_2 <= 1
       s_0_3_1_2 <= 1
       s_0_4_1_2 <= 1
       s_0_0_1_3 <= 1
       s_0_2_1_3 <= 1
       s_0_4_1_3 <= 1
       s_0_0_1_4 <= 1
       s_0_2_1_4 <= 1
       s_0_3_1_4 <= 1
       s_0_0_2_3 <= 1
       s_0_1_2_3 <= 1
       s_0_4_2_3 <= 1
       s_0_0_2_4 <= 1
       s_0_1_2_4 <= 1
       s_0_3_2_4 <= 1
       s_0_0_3_4 <= 1
       s_0_1_3_4 <= 1
       s_0_2_3_4 <= 1
       s_1_2_0_1 <= 1
       s_1_3_0_1 <= 1
       s_1_4_0_1 <= 1
       s_1_1_0_2 <= 1
       s_1_3_0_2 <= 1
       s_1_4_0_2 <= 1
       s_1_1_0_3 <= 1
       s_1_2_0_3 <= 1
       s_1_4_0_3 <= 1
       s_1_1_0_4 <= 1
       s_1_2_0_4 <= 1
       s_1_3_0_4 <= 1
       s_1_0_1_2 <= 1
       s_1_3_1_2 <= 1
       s_1_4_1_2 <= 1
       s_1_0_1_3 <= 1
       s_1_2_1_3 <= 1
       s_1_4_1_3 <= 1
       s_1_0_1_4 <= 1
       s_1_2_1_4 <= 1
       s_1_3_1_4 <= 1
       s_1_0_2_3 <= 1
       s_1_1_2_3 <= 1
       s_1_4_2_3 <= 1
       s_1_0_2_4 <= 1
       s_1_1_2_4 <= 1
       s_1_3_2_4 <= 1
       s_1_0_3_4 <= 1
       s_1_1_3_4 <= 1
       s_1_2_3_4 <= 1
       s_2_2_0_1 <= 1
       s_2_3_0_1 <= 1
       s_2_4_0_1 <= 1
       s_2_1_0_2 <= 1
       s_2_3_0_2 <= 1
       s_2_4_0_2 <= 1
       s_2_1_0_3 <= 1
       s_2_2_0_3 <= 1
       s_2_4_0_3 <= 1
       s_2_1_0_4 <= 1
       s_2_2_0_4 <= 1
       s_2_3_0_4 <= 1
       s_2_0_1_2 <= 1
       s_2_3_1_2 <= 1
       s_2_4_1_2 <= 1
       s_2_0_1_3 <= 1
       s_2_2_1_3 <= 1
       s_2_4_1_3 <= 1
       s_2_0_1_4 <= 1
       s_2_2_1_4 <= 1
       s_2_3_1_4 <= 1
       s_2_0_2_3 <= 1
       s_2_1_2_3 <= 1
       s_2_4_2_3 <= 1
       s_2_0_2_4 <= 1
       s_2_1_2_4 <= 1
       s_2_3_2_4 <= 1
       s_2_0_3_4 <= 1
       s_2_1_3_4 <= 1
       s_2_2_3_4 <= 1
End
