logs/t__ID000M003J005_ZintFalse_minla_fav.txt
CPXPARAM_TimeLimit                               3600
CPXPARAM_Read_DataCheck                          1
Tried aggregator 1 time.
LP Presolve eliminated 11 rows and 0 columns.
Reduced LP has 479 rows, 136 columns, and 1573 nonzeros.
Presolve time = 0.00 sec. (0.24 ticks)

Iteration log . . .
Iteration:     1   Dual objective     =            23.000000
Perturbation started.
Iteration:    51   Dual objective     =            23.000000
Iteration:   124   Dual objective     =            26.818174
Iteration:   198   Dual objective     =            28.277848
Removing perturbation.
